# Solution for model problem
# Objective value = 0
src_0 0
src_1 1
src_2 0
src_3 0
ptr_0 1
ptr_1 0
ptr_2 0
ptr_3 0
cache_0 1
cache_1 0
cache_2 0
cache_3 0
tooth_0 1
tooth_1 0
tooth_2 0
tooth_3 0
sink_0 1
sink_1 0
sink_2 0
sink_3 0
